NAME : mtspf.pid6574.gtsp.123480442.tour
COMMENT : Length = 123480442
COMMENT : Found by LKH [Keld Helsgaun] Thu Jan  9 12:10:20 2025
TYPE : TOUR
DIMENSION : 83
TOUR_SECTION
1
2
78
79
76
77
28
29
30
31
43
40
41
42
50
51
48
49
54
55
52
53
25
26
27
24
68
69
70
71
9
10
11
8
14
15
12
13
63
60
61
62
81
82
83
80
18
19
16
17
3
56
57
58
59
36
37
38
39
5
6
7
4
22
23
20
21
33
34
35
32
74
75
72
73
46
47
44
45
65
66
67
64
-1
EOF
